\ENCODING=ISO-8859-1
\Problem name: ILOG.CPLEX

Minimize
 obj: 1440 x1 + 1440 x1 + 1440 x3 + 1440 x5 + 1440 x7 + 1440 x9 + 1440 x11
      + 1440 x13 + 1440 x15 + 1440 x17 + 1440 x19 + 1440 x21 + 1440 x23
      + 1440 x25 + 1440 x27 + 1440 x29 + 1440 x31 + 1440 x33 + 1440 x35
      + 1440 x37 + 1440 x39 + 1440 x41 + 1440 x43 + 1440 x45 + 1440 x47
      + 1440 x49 + 1440 x51 + 1440 x53 + 1440 x55 + 1440 x57 + 1440 x59
      + 1440 x61 + 1440 x63 + 1440 x65 + 1440 x67 + 1440 x69 + 1440 x71
      + 1440 x73 + 1440 x75 + 1440 x77 + 1440 x79 + 1440 x81 + 1440 x83
      + 1440 x85 + 1440 x87 + 1440 x89 + 1440 x91 + 1440 x93 + 1440 x95
      + 1440 x97 + 1440 x99 + 1440 x101 + 1440 x103 + 1440 x105 + 1440 x107
      + 1440 x109 + 1440 x111 + 1440 x113 + 1440 x115 + 1440 x117 + 1440 x119
      + 1440 x121 + 1440 x123 + 1440 x125 + 1440 x127 + 1440 x129 + 1440 x131
      + 1440 x133 + 1440 x135 + 1440 x137 + 1440 x139 + 1440 x141 + 1440 x143
      + 1440 x145 + 1440 x147 + 1440 x149 + 1440 x151 + 1440 x153 + 1440 x155
      + 1440 x157 + 1440 x159 + 1440 x161 + 1440 x163 + 1440 x165 + 1440 x167
      + 1440 x169 + 1440 x171 + 1440 x173 + 1440 x175 + 1440 x177 + 1440 x179
      + 1440 x181 + 1440 x183 + 1440 x185 + 1440 x187 + 1440 x189 + 1440 x191
      + 1440 x193 + 1440 x195 + 1440 x197 + 1440 x199 + 1440 x201 + 1440 x203
      + 1440 x205 + 1440 x207 + 1440 x209 + 1440 x211 + 1440 x213 + 1440 x215
      + 1440 x217 + 1440 x219 + 1440 x221 + 1440 x223 + 1440 x225 + 1440 x227
      + 1440 x229 + 1440 x231 + 1440 x233 + 1440 x235 + 1440 x237 + 1440 x239
      + 1440 x241 + 1440 x243 + 1440 x245 + 1440 x247 + 1440 x249 + 1440 x251
      + 1440 x253 + 1440 x255 + 1440 x257 + 1440 x259 + 1440 x261 + 1440 x263
      + 1440 x265 + 1440 x267 + 1440 x269 + 1440 x271 + 1440 x273 + 1440 x275
      + 1440 x277 + 1440 x279 + 1440 x281 + 1440 x283 + 1440 x285 + 1440 x287
      + 1440 x289 + 1440 x291 + 1440 x293 + 1440 x294 + 1440 x296 + 1440 x298
      + 1440 x300 + 1440 x302 + 1440 x304 + 1440 x306 + 1440 x308 + 1440 x310
      + 1440 x312 + 1440 x314 + 1440 x316 + 1440 x318 + 1440 x320 + 1440 x322
      + 1440 x324 + 1440 x326 + 1440 x328 + 1440 x330 + 1440 x332 + 1440 x334
      + 1440 x336 + 1440 x338 + 1440 x340 + 1440 x342 + 1440 x344 + 1440 x346
      + 1440 x348 + 1440 x350 + 1440 x352 + 1440 x354 + 1440 x356 + 1440 x358
      + 1440 x360 + 1440 x362 + 1440 x364 + 1440 x366 + 1440 x368 + 1440 x370
      + 1440 x372 + 1440 x374 + 1440 x376 + 1440 x378 + 1440 x380 + 1440 x382
      + 1440 x383 + 1440 x385 + 1440 x387 + 1440 x389 + 1440 x391 + 1440 x393
      + 1440 x395 + 1440 x397 + 1440 x399 + 1440 x401 + 1440 x403 + 1440 x405
      + 1440 x407 + 1440 x409 + 1440 x411 + 1440 x413 + 1440 x415 + 1440 x417
      + 1440 x419 + 1440 x421 + 1440 x423 + 1440 x425 + 1440 x427 + 1440 x429
      + 1440 x431 + 1440 x433 + 1440 x435 + 1440 x437 + 1440 x439 + 1440 x441
      + 1440 x443 + 1440 x445 + 1440 x447 + 1440 x449 + 1440 x450 + 1440 x452
      + 1440 x454 + 1440 x456 + 1440 x458 + 1440 x460 + 1440 x462 + 1440 x464
      + 1440 x466 + 1440 x468 + 1440 x470 + 1440 x472 + 1440 x474 + 1440 x476
      + 1440 x478 + 1440 x480 + 1440 x482 + 1440 x484 + 1440 x486 + 1440 x488
      + 1440 x490 + 1440 x492 + 1440 x494 + 1440 x496 + 1440 x498 + 1440 x500
      + 1440 x502 + 1440 x503 + 1440 x505 + 1440 x507 + 1440 x509 + 1440 x511
      + 1440 x513 + 1440 x515 + 1440 x517 + 1440 x519 + 1440 x521 + 1440 x523
      + 1440 x525 + 1440 x527 + 1440 x528 + 1440 x530 + 1440 x532 + 1440 x534
      + 1440 x536 + 1440 x538 + 1440 x540 + 1440 x542 + 1440 x544 + 1440 x546
      + 1440 x548 + 1440 x550 + 1440 x552 + 1440 x554 + 1440 x556 + 1440 x558
      + 1440 x560 + 1440 x562 + 1440 x564 + 1440 x566 + 1440 x567 + 1440 x569
      + 1440 x571 + 1440 x573 + 1440 x575 + 1440 x577 + 1440 x579 + 1440 x581
      + 1440 x583 + 1440 x585 + 1440 x587 + 1440 x589 + 1440 x591 + 1440 x592
      + 1440 x594 + 1440 x596 + 1440 x598 + 1440 x600 + 1440 x602 + 1440 x604
      + 1440 x606 + 1440 x608 + 1440 x610 + 1440 x612 + 1440 x613 + 1440 x615
      + 1440 x617 + 1440 x619 + 1440 x621 + 1440 x623 + 1440 x625 + 1440 x627
      + 1440 x629 + 1440 x631 + 1440 x633 + 1440 x635 + 1440 x637 + 1440 x639
      + 1440 x641 + 1440 x643 + 1440 x645 + 1440 x647 + 1440 x649 + 1440 x651
      + 1440 x653 + 1440 x655 + 1440 x657 + 1440 x658 + 1440 x660 + 1440 x662
      + 1440 x664 + 1440 x666 + 1440 x668 + 1440 x670 + 1440 x672 + 1440 x674
      + 1440 x676 + 1440 x678 + 1440 x680 + 1440 x682 + 1440 x684 + 1440 x685
      + 1440 x687 + 1440 x689 + 1440 x691 + 1440 x693 + 1440 x695 + 1440 x697
      + 1440 x699 + 1440 x701 + 1440 x703 + 1440 x705 + 1440 x707 + 1440 x709
      + 1440 x711 + 1440 x713 + 1440 x715 + 1440 x717 + 1440 x719 + 1440 x721
      + 1440 x723 + 1440 x725 + 1440 x727 + 1440 x729 + 1440 x731 + 1440 x733
      + 1440 x735 + 1440 x737 + 1440 x739 + 1440 x741 + 1440 x742 + 1440 x744
      + 1440 x746 + 1440 x748 + 1440 x750 + 1440 x752 + 1440 x754 + 1440 x756
      + 1440 x758 + 1440 x760 + 1440 x762 + 1440 x764 + 1440 x766 + 1440 x768
      + 1440 x770 + 1440 x772 + 1440 x774 + 1440 x776 + 1440 x778 + 1440 x780
      + 1440 x782 + 1440 x784 + 1440 x786 + 1440 x788 + 1440 x790 + 1440 x792
      + 1440 x794 + 1440 x796 + 1440 x798 + 1440 x800 + 1440 x802 + 1440 x804
      + 1440 x806 + 1440 x808 + 1440 x810 + 1440 x812 + 1440 x814 + 1440 x816
      + 1440 x818 + 1440 x820 + 1440 x822 + 1440 x823 + 1440 x825 + 1440 x827
      + 1440 x829 + 1440 x831 + 1440 x833 + 1440 x835 + 1440 x837 + 1440 x839
      + 1440 x841 + 1440 x843 + 1440 x845 + 1440 x847 + 1440 x849 + 1440 x851
      + 1440 x853 + 1440 x855 + 1440 x857 + 1440 x859 + 1440 x861 + 1440 x863
      + 1440 x865 + 1440 x867 + 1440 x869 + 1440 x871 + 1440 x873 + 1440 x875
      + 1440 x877 + 1440 x879 + 1440 x881 + 1440 x883 + 1440 x885 + 1440 x887
      + 1440 x889 + 1440 x891 + 1440 x893 + 1440 x895 + 1440 x897 + 1440 x899
      + 1440 x901 + 1440 x903 + 1440 x905 + 1440 x907 + 1440 x909 + 1440 x911
      + 1440 x913 + 1440 x915 + 1440 x917 + 1440 x919 + 1440 x921 + 1440 x922
      + 1440 x924 + 1440 x926 + 1440 x928 + 1440 x930 + 1440 x932 + 1440 x934
      + 1440 x936 + 1440 x938 + 1440 x940 + 1440 x942 + 1440 x944 + 1440 x946
      + 1440 x948 + 1440 x950 + 1440 x952 + 1440 x954 + 1440 x956 + 1440 x958
      + 1440 x960 + 1440 x961 + 1440 x963 + 1440 x965 + 1440 x967 + 1440 x969
      + 1440 x971 + 1440 x973 + 1440 x975 + 1440 x977 + 1440 x979 + 1440 x981
      + 1440 x983 + 1440 x985 + 1440 x987 + 1440 x989 + 1440 x991 + 1440 x993
      + 1440 x995 + 1440 x997 + 1440 x999 + 1440 x1001 + 1440 x1003
      + 1440 x1005 + 1440 x1007 + 1440 x1009 + 1440 x1010 + 1440 x1012
      + 1440 x1014 + 1440 x1016 + 1440 x1018 + 1440 x1020 + 1440 x1022
      + 1440 x1024 + 1440 x1026 + 1440 x1028 + 1440 x1030 + 1440 x1032
      + 1440 x1034 + 1440 x1036 + 1440 x1037 + 1440 x1039 + 1440 x1041
      + 1440 x1043 + 1440 x1044 + 1440 x1046 + 1440 x1048 + 1440 x1050
      + 1440 x1052 + 1440 x1054 + 1440 x1056 + 1440 x1058 + 1440 x1060
      + 1440 x1062 + 1440 x1064 + 1440 x1066 + 1440 x1068 + 1440 x1070
      + 1440 x1072 + 1440 x1074 + 1440 x1076 + 1440 x1078 + 1440 x1080
      + 1440 x1082 + 1440 x1084 + 1440 x1086 + 1440 x1088 + 1440 x1090
      + 1440 x1092 + 1440 x1094 + 1440 x1096 + 1440 x1098 + 1440 x1100
      + 1440 x1102 + 1440 x1104 + 1440 x1106 + 1440 x1108 + 1440 x1109
      + 1440 x1111 + 1440 x1113 + 1440 x1115 + 1440 x1116 + 1440 x1118
      + 1440 x1120 + 1440 x1122 + 1440 x1124 + 1440 x1126 + 1440 x1128
      + 1440 x1130 + 1440 x1132 + 1440 x1134 + 1440 x1136 + 1440 x1138
      + 1440 x1140 + 1440 x1142 + 1440 x1144 + 1440 x1146 + 1440 x1148
      + 1440 x1150 + 1440 x1152 + 1440 x1154 + 1440 x1155 + 1440 x1157
      + 1440 x1159 + 1440 x1161 + 1440 x1162 + 1440 x1164 + 1440 x1166
      + 1440 x1168 + 1440 x1170 + 1440 x1172 + 1440 x1173 + 1440 x1175
      + 1440 x1177 + 1440 x1178 + 1440 x1180 + 1440 x1182 + 1440 x1184
      + 1440 x1186 + 1440 x1188 + 1440 x1190 + 1440 x1192 + 1440 x1194
      + 1440 x1196 + 1440 x1198 + 1440 x1200 + 1440 x1202 + 1440 x1204
      + 1440 x1205 + 1440 x1207 + 1440 x1208 + 1440 x1210 + 1440 x1212
      + 1440 x1214 + 1440 x1216 + 1440 x1218 + 1440 x1220
Subject To
 c1:   x105 + x346 + x417 + x579 + x897 + x903 + x1060 >= 1
 c3:   x39 + x302 + x310 + x312 + x348 + x370 + x515 + x581 + x705 + x739
       + x802 + x806 + x808 + x810 + x812 + x911 + x1009 >= 1
 c5:   x197 + x346 + x635 + x637 + x639 + x647 + x649 + x1060 + x1062 + x1094
       + x1096 + x1148 + x1152 + x1208 >= 1
 c7:   x173 + x302 + x312 + x320 >= 1
 c9:   x135 + x310 + x316 + x318 + x370 + x1060 + x1062 + x1086 + x1202 >= 1
 c11:  x29 + x302 + x306 + x322 + x342 + x548 + x600 + x657 + x853 + x861
       + x1024 + x1039 + x1090 + x1102 >= 1
 c13:  x47 + x318 + x320 + x431 + x500 + x703 + x940 + x960 + x977 >= 1
 c14:  x43 + x294 + x296 + x306 + x314 + x354 + x449 + x566 + x612 + x827
       + x873 + x921 + x983 + x1074 + x1115 + x1173 >= 1
 c15:  x201 + x293 + x407 + x431 + x437 + x439 + x490 + x492 + x494 + x496
       + x865 + x891 + x911 + x913 + x1056 + x1064 + x1100 + x1102 + x1126
       + x1150 + x1152 + x1172 >= 1
 c16:  x205 + x332 + x449 + x476 + x478 + x542 + x544 + x602 + x827 + x921
       + x922 + x924 + x1155 + x1188 >= 1
 c17:  x53 + x293 + x591 + x596 + x711 + x913 + x1064 + x1100 + x1102 + x1172
       + x1173 >= 1
 c18:  x31 + x401 + x435 + x678 + x827 + x845 + x921 + x922 + x924 + x932
       + x1155 >= 1
 c19:  x159 + x293 + x338 + x360 + x591 + x715 + x778 + x913 + x983 + x1003
       + x1005 + x1026 + x1064 + x1100 + x1102 + x1172 + x1173 >= 1
 c20:  x273 + x300 + x450 + x460 + x492 + x538 + x569 + x594 + x742 + x875
       + x1155 >= 1
 c21:  x63 + x383 + x441 + x443 + x1010 + x1024 + x1039 >= 1
 c22:  x269 + x326 + x372 + x413 + x419 + x466 + x598 + x664 + x668 + x831
       + x839 + x847 + x1022 + x1130 + x1164 >= 1
 c23:  x25 + x322 + x342 + x383 + x411 + x443 + x774 + x794 >= 1
 c24:  x19 + x308 + x326 + x831 + x839 + x851 + x899 + x901 + x903 + x909
       + x1207 + x1214 >= 1
 c25:  x25 + x662 + x664 + x666 + x668 + x676 + x678 + x680 + x682 + x709
       + x713 + x723 + x735 + x794 + x877 + x917 + x1058 + x1168 >= 1
 c26:  x105 + x647 + x649 + x693 + x928 + x1096 + x1111 + x1113 + x1164 + x1182
       + x1184 + x1200 >= 1
 c27:  x41 + x298 + x300 + x308 + x389 + x399 + x450 + x542 + x583 + x875
       + x877 + x981 + x1058 >= 1
 c28:  x59 + x316 + x340 + x752 + x754 + x756 + x772 + x778 + x780 + x798
       + x999 + x1060 >= 1
 c29:  x163 + x382 + x389 + x391 + x399 + x425 + x435 + x839 + x847 + x1058
       + x1086 >= 1
 c30:  x59 + x999 + x1036 >= 1
 c31:  x45 + x382 + x389 + x399 + x480 + x660 + x676 + x909 + x1016 + x1030
       + x1136 + x1142 + x1144 >= 1
 c32:  x267 + x470 + x474 + x496 + x505 + x511 + x729 + x936 + x991 + x999
       + x1126 >= 1
 c33:  x271 + x382 + x389 + x458 + x490 + x502 + x592 + x727 + x928 + x934
       + x956 + x1146 >= 1
 c34:  x63 + x744 + x746 + x748 + x808 + x812 >= 1
 c35:  x209 + x583 + x744 + x746 + x782 + x786 + x814 + x816 + x820 + x883
       + x1066 + x1068 + x1072 + x1076 >= 1
 c36:  x53 + x581 + x585 + x754 + x802 + x818 + x820 + x911 + x1009 + x1128
       >= 1
 c37:  x39 + x255 + x750 + x825 + x843 + x907 + x911 + x913 + x961 + x1100
       + x1177 + x1178 + x1194 + x1196 >= 1
 c38:  x39 + x458 + x460 + x468 + x470 + x500 + x750 + x760 + x764 + x768
       + x770 + x1032 + x1044 + x1054 + x1118 + x1138 + x1194 >= 1
 c39:  x263 + x468 + x494 + x503 + x701 + x989 >= 1
 c40:  x3 + x334 + x372 + x374 >= 1
 c41:  x217 + x334 + x366 + x577 + x895 + x901 + x1166 >= 1
 c42:  x147 + x294 + x823 + x827 + x829 + x845 + x967 >= 1
 c43:  x35 + x629 + x635 + x647 >= 1
 c44:  x105 + x1109 + x1113 >= 1
 c45:  x1 + x340 + x382 + x391 + x409 >= 1
 c46:  x83 >= 1
 c47:  x83 >= 1
 c48:  x57 + x336 + x358 + x528 + x556 + x735 + x917 + x952 + x973 + x1041
       + x1168 >= 1
 c49:  x57 + x336 + x358 + x528 + x556 + x735 + x917 + x952 + x973 + x1041
       + x1168 >= 1
 c50:  x41 + x981 >= 1
 c51:  x29 + x657 + x672 + x680 + x727 + x729 + x735 + x737 + x816 + x841
       + x859 + x861 + x879 + x881 + x883 + x915 + x917 + x919 >= 1
 c52:  x185 + x304 + x330 + x360 + x657 + x670 + x674 + x983 + x1005 + x1007
       + x1074 >= 1
 c53:  x43 + x670 + x835 + x843 + x855 + x857 + x871 + x1106 >= 1
 c54:  x159 + x509 + x591 + x835 + x1106 + x1115 + x1118 + x1124 + x1142
       + x1172 + x1173 >= 1
 c55:  x181 + x627 + x960 + x961 + x969 + x971 + x975 + x1207 >= 1
 c56:  x65 + x427 + x429 + x532 + x554 + x560 + x788 + x960 + x961 + x975 >= 1
 c57:  x65 + x427 + x429 + x532 + x554 + x560 + x788 + x960 + x961 + x975 >= 1
 c58:  x65 + x525 >= 1
 c59:  x237 >= 1
 c60:  x127 + x362 + x421 + x423 + x530 + x750 + x758 + x760 + x907 >= 1
 c61:  x127 + x362 + x421 + x423 + x530 + x750 + x758 + x760 + x907 >= 1
 c62:  x31 + x401 + x678 + x1012 + x1026 + x1028 + x1050 + x1078 >= 1
 c63:  x183 + x449 + x478 + x488 + x1012 + x1124 + x1196 >= 1
 c64:  x43 + x449 + x567 + x612 >= 1
 c65:  x259 + x374 + x415 + x575 + x893 + x899 >= 1
 c66:  x45 + x575 + x577 + x579 + x971 >= 1
 c67:  x45 + x267 + x784 + x786 + x792 + x831 + x839 + x847 + x851 + x887
       + x909 + x1214 >= 1
 c68:  x45 + x517 + x598 + x684 + x693 + x719 + x831 + x849 + x851 + x909
       + x1170 >= 1
 c69:  x19 + x569 + x691 + x693 + x719 + x721 + x723 + x725 + x851 + x863
       + x1084 >= 1
 c70:  x261 + x296 + x298 + x660 + x691 + x762 + x764 + x926 >= 1
 c71:  x197 + x1108 + x1109 + x1208 >= 1
 c72:  x35 + x1092 + x1180 + x1184 + x1186 + x1200 >= 1
 c73:  x35 + x1092 + x1094 + x1180 + x1186 >= 1
 c74:  x35 >= 1
 c75:  x191 + x271 + x758 + x762 + x766 + x987 + x997 + x1052 >= 1
 c76:  x59 + x987 >= 1
 c77:  x59 + x452 + x474 + x476 + x498 + x867 + x905 + x999 + x1098 >= 1
 c78:  x41 + x1014 >= 1
 c79:  x185 + x441 + x527 + x544 + x546 + x548 + x756 + x825 + x837 + x853
       + x1018 + x1024 + x1116 + x1154 + x1161 + x1162 >= 1
 c80:  x53 + x527 + x528 + x530 + x532 + x546 + x942 + x979 + x1009 + x1018
       + x1020 + x1022 + x1030 + x1032 >= 1
 c81:  x95 + x405 + x591 + x592 + x594 + x596 >= 1
 c82:  x147 + x437 + x519 + x926 + x946 + x948 + x950 + x1032 + x1044 + x1138
       >= 1
 c83:  x147 + x437 + x519 + x926 + x946 + x948 + x950 + x1032 + x1044 + x1138
       >= 1
 c84:  x193 + x859 + x863 + x865 + x995 + x997 + x1144 >= 1
 c85:  x251 + x521 + x585 + x707 + x737 + x748 + x790 + x792 + x881 + x919
       + x954 + x1070 + x1132 >= 1
 c86:  x39 + x385 + x387 + x515 + x521 + x752 + x804 + x814 + x1104 >= 1
 c87:  x127 + x259 + x685 + x689 + x715 + x717 + x731 + x857 + x1154 + x1159
       >= 1
 c88:  x127 + x261 + x907 + x995 >= 1
 c89:  x21 + x977 + x979 + x1048 + x1090 >= 1
 c90:  x63 + x983 + x1048 + x1064 + x1074 >= 1
 c91:  x53 + x502 + x503 + x505 + x511 + x519 >= 1
 c92:  x95 + x699 + x770 + x879 + x891 + x905 + x985 >= 1
 c93:  x255 + x464 + x662 + x666 + x796 + x798 + x800 + x1020 + x1058 + x1157
       + x1159 >= 1
 c94:  x181 + x721 + x774 + x796 + x800 + x924 + x944 + x946 + x952 >= 1
 c95:  x147 + x922 + x924 + x926 + x930 + x934 + x936 + x938 + x946 + x948
       + x952 + x954 + x1070 + x1072 + x1155 >= 1
 c96:  x43 + x350 + x393 + x433 + x861 + x938 + x1003 + x1115 + x1116 + x1128
       >= 1
 c97:  x205 + x433 + x509 + x517 + x567 + x612 + x645 + x657 + x674 + x861
       + x1007 + x1028 + x1074 + x1115 >= 1
 c98:  x15 >= 1
 c99:  x15 >= 1
 c100: x201 + x498 + x766 + x768 >= 1
 c101: x63 + x462 + x600 + x606 + x1039 + x1078 + x1177 + x1188 + x1190 >= 1
 c102: x133 + x385 + x387 + x395 + x397 + x695 + x697 + x804 + x818 + x837
       + x871 + x1104 + x1198 >= 1
 c103: x133 + x613 + x615 + x1198 >= 1
 c104: x121 + x419 + x893 + x895 + x897 + x969 >= 1
 c105: x31 + x263 + x885 + x1068 + x1082 + x1140 >= 1
 c106: x245 >= 1
 c107: x115 + x245 >= 1
 c108: x171 + x293 + x338 + x454 + x486 + x488 + x534 + x758 + x760 + x855
       + x1001 >= 1
 c109: x137 + x251 + x889 + x1122 >= 1
 c110: x143 + x658 + x889 + x930 >= 1
 c111: x143 >= 1
 c112: x47 + x265 + x1192 + x1202 >= 1
 c113: x47 + x684 + x685 + x687 + x689 + x695 + x697 + x699 + x701 + x703
       + x705 + x707 + x711 + x731 + x739 + x1192 >= 1
 c115: x49 + x362 + x409 + x452 + x687 + x733 + x928 + x1157 + x1161 + x1164
       + x1166 >= 1
 c117: x193 + x362 + x928 + x956 >= 1
 c119: x265 + x302 + x348 + x633 + x639 + x806 + x810 + x1009 >= 1
 c121: x31 + x741 + x922 + x1204 >= 1
 c123: x89 >= 1
 c125: x47 + x528 + x631 + x637 + x1168 >= 1
 c127: x33 + x225 + x287 >= 1
 c129: x287 >= 1
 c131: x41 + x709 + x713 + x940 + x942 + x944 + x958 + x1178 >= 1
 c132: x57 + x237 >= 1
 c133: x57 + x233 + x291 >= 1
 c134: x233 >= 1
 c135: x247 + x525 + x1034 >= 1
 c136: x51 >= 1
 c137: x51 >= 1
 c138: x29 + x612 + x641 + x645 + x1120 + x1122 + x1140 + x1162 >= 1
 c139: x1 >= 1
 c140: x1 >= 1
 c141: x37 >= 1
 c142: x23 >= 1
 c143: x23 >= 1
 c144: x9 >= 1
 c145: x9 >= 1
 c146: x11 >= 1
 c147: x11 >= 1
 c148: x17 + x269 + x869 + x1190 >= 1
 c149: x29 + x393 + x397 + x454 + x486 >= 1
 c150: x121 + x273 + x625 + x658 + x678 + x682 + x782 + x790 + x985 + x989
       + x991 + x993 + x1076 + x1080 + x1120 >= 1
 c151: x173 + x625 + x885 + x887 + x1080 + x1082 + x1098 >= 1
 c152: x173 + x387 + x452 + x456 + x536 + x697 + x752 + x754 + x804 + x818
       + x1080 + x1082 + x1098 + x1104 >= 1
 c153: x27 + x480 >= 1
 c154: x27 >= 1
 c155: x101 >= 1
 c156: x125 + x247 >= 1
 c157: x235 >= 1
 c158: x113 >= 1
 c159: x21 + x1034 >= 1
 c160: x101 + x241 >= 1
 c161: x97 + x411 + x462 + x464 + x466 + x958 + x1088 >= 1
 c162: x107 + x530 + x532 + x538 + x1146 >= 1
 c163: x231 + x822 + x1205 >= 1
 c164: x171 + x717 + x733 + x780 + x965 + x967 + x1046 >= 1
 c165: x91 >= 1
 c166: x139 >= 1
 c167: x13 >= 1
 c168: x13 >= 1
 c169: x13 + x289 >= 1
 c170: x139 >= 1
 c171: x5 >= 1
 c172: x117 >= 1
 c173: x87 + x304 + x330 + x332 + x350 + x395 + x403 + x425 + x641 + x1043 >= 1
 c174: x3 >= 1
 c175: x3 >= 1
 c176: x135 + x867 >= 1
 c177: x135 + x867 >= 1
 c178: x113 + x235 >= 1
 c179: x125 >= 1
 c180: x183 + x615 + x833 + x965 >= 1
 c181: x209 + x1010 + x1024 + x1039 + x1066 + x1132 + x1134 + x1148 >= 1
 c182: x87 + x354 + x672 + x915 >= 1
 c183: x89 + x741 + x742 + x823 + x829 + x833 + x1175 + x1204 >= 1
 c184: x131 + x243 >= 1
 c185: x131 >= 1
 c186: x229 >= 1
 c187: x129 >= 1
 c188: x49 + x822 + x1205 >= 1
 c189: x49 + x507 + x523 >= 1
 c190: x1 >= 1
 c191: x1 >= 1
 c192: x221 + x281 + x334 + x366 + x643 + x776 + x1166 + x1210 + x1212 + x1216
       + x1218 >= 1
 c193: x279 + x304 + x332 + x334 + x356 + x366 + x368 + x395 + x425 + x641
       + x643 + x776 + x1166 + x1210 + x1216 + x1218 >= 1
 c194: x69 + x283 + x304 + x358 + x427 + x429 + x515 + x554 + x556 + x581
       + x643 + x705 + x776 + x1062 + x1092 + x1094 + x1180 + x1192 + x1210
       >= 1
 c195: x99 + x304 + x328 + x330 + x350 + x352 + x393 + x423 + x670 + x1003 >= 1
 c196: x99 >= 1
 c197: x99 >= 1
 c198: x99 + x328 + x393 + x421 + x423 + x670 + x1003 >= 1
 c199: x221 + x310 + x312 + x336 + x429 + x507 + x515 + x581 + x649 + x705
       + x802 + x1192 + x1200 + x1202 >= 1
 c200: x141 >= 1
 c201: x141 >= 1
 c202: x73 + x289 + x421 >= 1
 c203: x73 + x279 + x407 >= 1
 c204: x171 + x431 + x500 + x717 + x733 + x780 >= 1
 c205: x5 >= 1
 c206: x85 + x564 + x608 + x610 + x1220 >= 1
 c207: x85 + x564 + x587 + x589 + x1220 >= 1
 c208: x33 >= 1
 c209: x289 >= 1
 c210: x121 + x560 + x604 + x1134 + x1214 + x1216 >= 1
 c211: x121 + x554 + x560 + x604 + x1134 + x1210 + x1212 + x1214 + x1216
       + x1218 >= 1
 c212: x217 + x399 + x413 + x415 + x417 + x437 + x439 + x519 + x627 + x629
       + x631 + x633 + x693 + x725 + x847 + x948 + x1108 + x1111 + x1130
       + x1134 + x1136 + x1138 + x1150 + x1164 + x1182 >= 1
 c213: x71 + x950 + x1041 >= 1
 c214: x71 + x950 + x1041 >= 1
 c215: x71 + x405 + x431 + x500 + x1118 + x1194 >= 1
 c216: x71 + x965 + x967 + x1046 + x1118 + x1194 >= 1
 c217: x141 >= 1
 c218: x141 >= 1
 c219: x61 >= 1
 c220: x61 >= 1
 c221: x191 + x613 + x921 + x932 + x1016 + x1044 + x1046 + x1084 + x1175 >= 1
 c222: x7 + x229 >= 1
 c223: x7 >= 1
 c224: x175 + x294 + x296 + x298 + x300 + x306 + x308 + x314 + x328 + x352
       + x354 + x356 + x364 + x566 + x672 + x841 + x873 + x915 >= 1
 c225: x81 + x294 + x296 + x298 + x300 + x306 + x308 + x328 + x364 >= 1
 c226: x157 >= 1
 c227: x157 >= 1
 c228: x73 >= 1
 c229: x73 >= 1
 c230: x69 >= 1
 c231: x69 >= 1
 c233: x129 >= 1
 c235: x151 + x310 + x312 + x336 + x368 + x507 + x649 + x788 + x802 + x1096
       + x1111 + x1113 + x1182 + x1184 + x1186 + x1200 + x1202 + x1218 >= 1
 c237: x151 >= 1
 c239: x151 >= 1
 c241: x91 >= 1
 c243: x105 + x366 + x606 + x647 + x975 >= 1
 c245: x17 + x231 + x1014 >= 1
 c247: x17 + x562 + x1014 >= 1
 c249: x189 + x450 + x482 + x875 + x877 + x981 >= 1
 c251: x189 + x558 + x742 + x823 + x833 + x875 + x1204 >= 1
 c253: x283 + x358 + x427 + x643 + x1062 + x1094 + x1180 + x1182 + x1184
       + x1186 >= 1
 c255: x97 + x772 + x849 + x1088 >= 1
 c257: x107 + x1036 + x1052 + x1054 + x1056 >= 1
 c259: x137 + x784 + x993 >= 1
 c260: x163 + x534 + x602 + x869 + x1001 + x1050 >= 1
 c261: x211 >= 1
 c262: x211 >= 1
 c263: x213 + x587 + x589 + x623 + x655 >= 1
 c264: x213 + x608 + x610 + x623 + x655 >= 1
 c265: x225 >= 1
 c266: x291 >= 1
 c267: x67 >= 1
 c268: x67 >= 1
 c269: x85 + x623 + x651 + x653 >= 1
 c270: x85 + x589 + x610 + x623 + x655 >= 1
 c271: x81 >= 1
 c272: x81 >= 1
 c273: x169 >= 1
 c274: x169 + x249 >= 1
 c275: x111 >= 1
 c276: x111 >= 1
 c277: x249 >= 1
 c278: x109 >= 1
 c279: x109 >= 1
 c280: x123 >= 1
 c281: x123 >= 1
 c282: x177 >= 1
 c283: x175 + x253 >= 1
 c284: x199 + x383 + x401 + x558 + x604 + x973 >= 1
 c285: x179 + x383 + x401 + x604 + x973 >= 1
 c286: x187 >= 1
 c287: x187 >= 1
 c288: x179 + x507 + x523 + x562 >= 1
 c289: x199 + x450 + x482 + x741 + x829 + x877 + x981 + x1175 >= 1
 c290: x281 + x556 + x776 + x788 + x1092 + x1096 + x1111 + x1113 >= 1
 c291: x117 >= 1
 c292: x243 + x314 + x403 + x405 + x407 + x566 + x841 + x873 + x1043 >= 1
 c293: x153 + x621 >= 1
 c294: x153 >= 1
 c295: x119 >= 1
 c296: x119 >= 1
 c297: x167 + x619 + x963 >= 1
 c298: x167 + x963 >= 1
 c299: x155 >= 1
 c300: x155 >= 1
 c301: x93 + x326 + x344 >= 1
 c302: x93 + x326 + x344 >= 1
 c303: x93 >= 1
 c304: x93 + x621 >= 1
 c305: x149 >= 1
 c306: x149 >= 1
 c307: x25 >= 1
 c308: x25 + x617 + x619 >= 1
 c309: x165 >= 1
 c310: x165 >= 1
 c311: x75 + x447 >= 1
 c312: x75 >= 1
 c313: x75 >= 1
 c314: x75 >= 1
 c315: x219 + x376 >= 1
 c316: x77 + x376 + x653 >= 1
 c317: x21 >= 1
 c318: x21 + x285 + x320 + x322 + x324 + x527 + x548 + x550 + x600 + x606
       + x756 + x774 + x794 + x963 + x977 + x979 + x1048 + x1090 >= 1
 c319: x285 + x320 + x322 + x324 + x527 + x548 + x550 + x600 + x606 + x756
       + x774 + x794 + x963 >= 1
 c320: x257 + x324 + x1010 >= 1
 c321: x79 + x324 + x1010 >= 1
 c322: x87 + x1043 >= 1
 c323: x87 + x1043 >= 1
 c324: x219 + x651 >= 1
 c325: x215 + x378 + x380 >= 1
 c326: x275 + x378 >= 1
 c327: x19 + x378 + x1037 >= 1
 c328: x19 + x257 + x480 + x1037 >= 1
 c329: x195 + x1170 >= 1
 c330: x195 >= 1
 c331: x79 + x275 >= 1
 c332: x79 >= 1
 c333: x79 + x445 >= 1
 c334: x207 + x380 + x445 >= 1
 c335: x77 >= 1
 c336: x77 >= 1
 c337: x77 + x564 + x587 + x589 + x608 + x610 + x655 + x1220 >= 1
 c338: x203 + x564 + x587 + x608 + x1220 >= 1
 c339: x103 >= 1
 c340: x103 >= 1
 c341: x55 >= 1
 c342: x55 >= 1
 c343: x227 >= 1
 c344: x37 + x227 + x1170 >= 1
 c345: x253 >= 1
 c346: x177 >= 1
 c347: x175 + x472 + x566 + x672 + x841 + x873 + x915 >= 1
 c348: x243 + x472 + x566 + x672 + x841 + x873 + x915 >= 1
 c349: x115 + x239 >= 1
 c350: x239 >= 1
 c351: x65 + x484 >= 1
 c352: x241 + x484 >= 1
 c353: x207 >= 1
 c354: x215 + x447 >= 1
 c355: x67 >= 1
 c356: x67 + x378 >= 1
 c357: x203 + x277 >= 1
 c358: x277 >= 1
 c359: x223 + x316 + x318 + x344 + x391 + x513 + x540 + x552 + x571 + x573
       + x684 + x685 + x687 + x703 + x1037 + x1086 >= 1
 c361: x223 + x316 + x318 + x344 + x391 + x571 + x573 + x684 + x685 + x687
       + x703 + x1037 + x1086 >= 1
 c363: x95 + x536 + x542 + x550 + x571 + x573 + x583 + x744 + x806 + x808
       + x881 + x883 + x1066 + x1068 + x1070 + x1072 + x1076 >= 1
 c365: x95 + x536 + x540 + x542 + x550 + x552 + x571 + x573 + x583 + x744
       + x806 + x808 + x881 + x883 + x1066 + x1068 + x1070 + x1072 + x1076 >= 1
 c367: x95 + x502 + x503 + x505 + x519 + x893 + x895 + x897 + x969 + x1126
       + x1130 + x1132 + x1136 + x1138 + x1146 + x1148 + x1150 + x1152 + x1207
       >= 1
 c369: x95 + x502 + x503 + x505 + x513 + x519 + x893 + x895 + x897 + x969
       + x1126 + x1130 + x1132 + x1136 + x1138 + x1148 + x1150 + x1152 + x1207
       >= 1
 c371: x107 + x530 + x532 + x536 + x538 + x540 + x571 + x613 + x615 + x662
       + x664 + x709 + x796 >= 1
 c373: x97 + x411 + x462 + x464 + x466 + x540 + x571 + x662 + x664 + x709
       + x796 + x958 + x1088 >= 1
 c375: x159 + x403 + x409 + x452 + x454 + x456 + x689 + x715 + x752 + x754
       + x778 + x825 + x835 + x843 + x853 + x855 + x857 + x1018 + x1106 + x1154
       + x1161 >= 1
 c377: x159 + x385 + x395 + x397 + x403 + x409 + x454 + x689 + x695 + x715
       + x778 + x825 + x835 + x837 + x843 + x853 + x855 + x857 + x871 + x1018
       + x1106 + x1154 + x1161 >= 1
 c379: x119 + x1120 + x1122 + x1140 >= 1
 c381: x119 + x625 + x658 + x885 + x887 + x889 + x930 + x1120 + x1122 + x1140
       >= 1
 c383: x145 + x617 >= 1
 c385: x145 >= 1
 c387: x161 >= 1
 c389: x161 >= 1
Bounds
 0 <= x1 <= 1
 0 <= x1 <= 1
 0 <= x3 <= 1
 0 <= x5 <= 1
 0 <= x7 <= 1
 0 <= x9 <= 1
 0 <= x11 <= 1
 0 <= x13 <= 1
 0 <= x15 <= 1
 0 <= x17 <= 1
 0 <= x19 <= 1
 0 <= x21 <= 1
 0 <= x23 <= 1
 0 <= x25 <= 1
 0 <= x27 <= 1
 0 <= x29 <= 1
 0 <= x31 <= 1
 0 <= x33 <= 1
 0 <= x35 <= 1
 0 <= x37 <= 1
 0 <= x39 <= 1
 0 <= x41 <= 1
 0 <= x43 <= 1
 0 <= x45 <= 1
 0 <= x47 <= 1
 0 <= x49 <= 1
 0 <= x51 <= 1
 0 <= x53 <= 1
 0 <= x55 <= 1
 0 <= x57 <= 1
 0 <= x59 <= 1
 0 <= x61 <= 1
 0 <= x63 <= 1
 0 <= x65 <= 1
 0 <= x67 <= 1
 0 <= x69 <= 1
 0 <= x71 <= 1
 0 <= x73 <= 1
 0 <= x75 <= 1
 0 <= x77 <= 1
 0 <= x79 <= 1
 0 <= x81 <= 1
 0 <= x83 <= 1
 0 <= x85 <= 1
 0 <= x87 <= 1
 0 <= x89 <= 1
 0 <= x91 <= 1
 0 <= x93 <= 1
 0 <= x95 <= 1
 0 <= x97 <= 1
 0 <= x99 <= 1
 0 <= x101 <= 1
 0 <= x103 <= 1
 0 <= x105 <= 1
 0 <= x107 <= 1
 0 <= x109 <= 1
 0 <= x111 <= 1
 0 <= x113 <= 1
 0 <= x115 <= 1
 0 <= x117 <= 1
 0 <= x119 <= 1
 0 <= x121 <= 1
 0 <= x123 <= 1
 0 <= x125 <= 1
 0 <= x127 <= 1
 0 <= x129 <= 1
 0 <= x131 <= 1
 0 <= x133 <= 1
 0 <= x135 <= 1
 0 <= x137 <= 1
 0 <= x139 <= 1
 0 <= x141 <= 1
 0 <= x143 <= 1
 0 <= x145 <= 1
 0 <= x147 <= 1
 0 <= x149 <= 1
 0 <= x151 <= 1
 0 <= x153 <= 1
 0 <= x155 <= 1
 0 <= x157 <= 1
 0 <= x159 <= 1
 0 <= x161 <= 1
 0 <= x163 <= 1
 0 <= x165 <= 1
 0 <= x167 <= 1
 0 <= x169 <= 1
 0 <= x171 <= 1
 0 <= x173 <= 1
 0 <= x175 <= 1
 0 <= x177 <= 1
 0 <= x179 <= 1
 0 <= x181 <= 1
 0 <= x183 <= 1
 0 <= x185 <= 1
 0 <= x187 <= 1
 0 <= x189 <= 1
 0 <= x191 <= 1
 0 <= x193 <= 1
 0 <= x195 <= 1
 0 <= x197 <= 1
 0 <= x199 <= 1
 0 <= x201 <= 1
 0 <= x203 <= 1
 0 <= x205 <= 1
 0 <= x207 <= 1
 0 <= x209 <= 1
 0 <= x211 <= 1
 0 <= x213 <= 1
 0 <= x215 <= 1
 0 <= x217 <= 1
 0 <= x219 <= 1
 0 <= x221 <= 1
 0 <= x223 <= 1
 0 <= x225 <= 1
 0 <= x227 <= 1
 0 <= x229 <= 1
 0 <= x231 <= 1
 0 <= x233 <= 1
 0 <= x235 <= 1
 0 <= x237 <= 1
 0 <= x239 <= 1
 0 <= x241 <= 1
 0 <= x243 <= 1
 0 <= x245 <= 1
 0 <= x247 <= 1
 0 <= x249 <= 1
 0 <= x251 <= 1
 0 <= x253 <= 1
 0 <= x255 <= 1
 0 <= x257 <= 1
 0 <= x259 <= 1
 0 <= x261 <= 1
 0 <= x263 <= 1
 0 <= x265 <= 1
 0 <= x267 <= 1
 0 <= x269 <= 1
 0 <= x271 <= 1
 0 <= x273 <= 1
 0 <= x275 <= 1
 0 <= x277 <= 1
 0 <= x279 <= 1
 0 <= x281 <= 1
 0 <= x283 <= 1
 0 <= x285 <= 1
 0 <= x287 <= 1
 0 <= x289 <= 1
 0 <= x291 <= 1
 0 <= x293 <= 1
 0 <= x294 <= 1
 0 <= x296 <= 1
 0 <= x298 <= 1
 0 <= x300 <= 1
 0 <= x302 <= 1
 0 <= x304 <= 1
 0 <= x306 <= 1
 0 <= x308 <= 1
 0 <= x310 <= 1
 0 <= x312 <= 1
 0 <= x314 <= 1
 0 <= x316 <= 1
 0 <= x318 <= 1
 0 <= x320 <= 1
 0 <= x322 <= 1
 0 <= x324 <= 1
 0 <= x326 <= 1
 0 <= x328 <= 1
 0 <= x330 <= 1
 0 <= x332 <= 1
 0 <= x334 <= 1
 0 <= x336 <= 1
 0 <= x338 <= 1
 0 <= x340 <= 1
 0 <= x342 <= 1
 0 <= x344 <= 1
 0 <= x346 <= 1
 0 <= x348 <= 1
 0 <= x350 <= 1
 0 <= x352 <= 1
 0 <= x354 <= 1
 0 <= x356 <= 1
 0 <= x358 <= 1
 0 <= x360 <= 1
 0 <= x362 <= 1
 0 <= x364 <= 1
 0 <= x366 <= 1
 0 <= x368 <= 1
 0 <= x370 <= 1
 0 <= x372 <= 1
 0 <= x374 <= 1
 0 <= x376 <= 1
 0 <= x378 <= 1
 0 <= x380 <= 1
 0 <= x382 <= 1
 0 <= x383 <= 1
 0 <= x385 <= 1
 0 <= x387 <= 1
 0 <= x389 <= 1
 0 <= x391 <= 1
 0 <= x393 <= 1
 0 <= x395 <= 1
 0 <= x397 <= 1
 0 <= x399 <= 1
 0 <= x401 <= 1
 0 <= x403 <= 1
 0 <= x405 <= 1
 0 <= x407 <= 1
 0 <= x409 <= 1
 0 <= x411 <= 1
 0 <= x413 <= 1
 0 <= x415 <= 1
 0 <= x417 <= 1
 0 <= x419 <= 1
 0 <= x421 <= 1
 0 <= x423 <= 1
 0 <= x425 <= 1
 0 <= x427 <= 1
 0 <= x429 <= 1
 0 <= x431 <= 1
 0 <= x433 <= 1
 0 <= x435 <= 1
 0 <= x437 <= 1
 0 <= x439 <= 1
 0 <= x441 <= 1
 0 <= x443 <= 1
 0 <= x445 <= 1
 0 <= x447 <= 1
 0 <= x449 <= 1
 0 <= x450 <= 1
 0 <= x452 <= 1
 0 <= x454 <= 1
 0 <= x456 <= 1
 0 <= x458 <= 1
 0 <= x460 <= 1
 0 <= x462 <= 1
 0 <= x464 <= 1
 0 <= x466 <= 1
 0 <= x468 <= 1
 0 <= x470 <= 1
 0 <= x472 <= 1
 0 <= x474 <= 1
 0 <= x476 <= 1
 0 <= x478 <= 1
 0 <= x480 <= 1
 0 <= x482 <= 1
 0 <= x484 <= 1
 0 <= x486 <= 1
 0 <= x488 <= 1
 0 <= x490 <= 1
 0 <= x492 <= 1
 0 <= x494 <= 1
 0 <= x496 <= 1
 0 <= x498 <= 1
 0 <= x500 <= 1
 0 <= x502 <= 1
 0 <= x503 <= 1
 0 <= x505 <= 1
 0 <= x507 <= 1
 0 <= x509 <= 1
 0 <= x511 <= 1
 0 <= x513 <= 1
 0 <= x515 <= 1
 0 <= x517 <= 1
 0 <= x519 <= 1
 0 <= x521 <= 1
 0 <= x523 <= 1
 0 <= x525 <= 1
 0 <= x527 <= 1
 0 <= x528 <= 1
 0 <= x530 <= 1
 0 <= x532 <= 1
 0 <= x534 <= 1
 0 <= x536 <= 1
 0 <= x538 <= 1
 0 <= x540 <= 1
 0 <= x542 <= 1
 0 <= x544 <= 1
 0 <= x546 <= 1
 0 <= x548 <= 1
 0 <= x550 <= 1
 0 <= x552 <= 1
 0 <= x554 <= 1
 0 <= x556 <= 1
 0 <= x558 <= 1
 0 <= x560 <= 1
 0 <= x562 <= 1
 0 <= x564 <= 1
 0 <= x566 <= 1
 0 <= x567 <= 1
 0 <= x569 <= 1
 0 <= x571 <= 1
 0 <= x573 <= 1
 0 <= x575 <= 1
 0 <= x577 <= 1
 0 <= x579 <= 1
 0 <= x581 <= 1
 0 <= x583 <= 1
 0 <= x585 <= 1
 0 <= x587 <= 1
 0 <= x589 <= 1
 0 <= x591 <= 1
 0 <= x592 <= 1
 0 <= x594 <= 1
 0 <= x596 <= 1
 0 <= x598 <= 1
 0 <= x600 <= 1
 0 <= x602 <= 1
 0 <= x604 <= 1
 0 <= x606 <= 1
 0 <= x608 <= 1
 0 <= x610 <= 1
 0 <= x612 <= 1
 0 <= x613 <= 1
 0 <= x615 <= 1
 0 <= x617 <= 1
 0 <= x619 <= 1
 0 <= x621 <= 1
 0 <= x623 <= 1
 0 <= x625 <= 1
 0 <= x627 <= 1
 0 <= x629 <= 1
 0 <= x631 <= 1
 0 <= x633 <= 1
 0 <= x635 <= 1
 0 <= x637 <= 1
 0 <= x639 <= 1
 0 <= x641 <= 1
 0 <= x643 <= 1
 0 <= x645 <= 1
 0 <= x647 <= 1
 0 <= x649 <= 1
 0 <= x651 <= 1
 0 <= x653 <= 1
 0 <= x655 <= 1
 0 <= x657 <= 1
 0 <= x658 <= 1
 0 <= x660 <= 1
 0 <= x662 <= 1
 0 <= x664 <= 1
 0 <= x666 <= 1
 0 <= x668 <= 1
 0 <= x670 <= 1
 0 <= x672 <= 1
 0 <= x674 <= 1
 0 <= x676 <= 1
 0 <= x678 <= 1
 0 <= x680 <= 1
 0 <= x682 <= 1
 0 <= x684 <= 1
 0 <= x685 <= 1
 0 <= x687 <= 1
 0 <= x689 <= 1
 0 <= x691 <= 1
 0 <= x693 <= 1
 0 <= x695 <= 1
 0 <= x697 <= 1
 0 <= x699 <= 1
 0 <= x701 <= 1
 0 <= x703 <= 1
 0 <= x705 <= 1
 0 <= x707 <= 1
 0 <= x709 <= 1
 0 <= x711 <= 1
 0 <= x713 <= 1
 0 <= x715 <= 1
 0 <= x717 <= 1
 0 <= x719 <= 1
 0 <= x721 <= 1
 0 <= x723 <= 1
 0 <= x725 <= 1
 0 <= x727 <= 1
 0 <= x729 <= 1
 0 <= x731 <= 1
 0 <= x733 <= 1
 0 <= x735 <= 1
 0 <= x737 <= 1
 0 <= x739 <= 1
 0 <= x741 <= 1
 0 <= x742 <= 1
 0 <= x744 <= 1
 0 <= x746 <= 1
 0 <= x748 <= 1
 0 <= x750 <= 1
 0 <= x752 <= 1
 0 <= x754 <= 1
 0 <= x756 <= 1
 0 <= x758 <= 1
 0 <= x760 <= 1
 0 <= x762 <= 1
 0 <= x764 <= 1
 0 <= x766 <= 1
 0 <= x768 <= 1
 0 <= x770 <= 1
 0 <= x772 <= 1
 0 <= x774 <= 1
 0 <= x776 <= 1
 0 <= x778 <= 1
 0 <= x780 <= 1
 0 <= x782 <= 1
 0 <= x784 <= 1
 0 <= x786 <= 1
 0 <= x788 <= 1
 0 <= x790 <= 1
 0 <= x792 <= 1
 0 <= x794 <= 1
 0 <= x796 <= 1
 0 <= x798 <= 1
 0 <= x800 <= 1
 0 <= x802 <= 1
 0 <= x804 <= 1
 0 <= x806 <= 1
 0 <= x808 <= 1
 0 <= x810 <= 1
 0 <= x812 <= 1
 0 <= x814 <= 1
 0 <= x816 <= 1
 0 <= x818 <= 1
 0 <= x820 <= 1
 0 <= x822 <= 1
 0 <= x823 <= 1
 0 <= x825 <= 1
 0 <= x827 <= 1
 0 <= x829 <= 1
 0 <= x831 <= 1
 0 <= x833 <= 1
 0 <= x835 <= 1
 0 <= x837 <= 1
 0 <= x839 <= 1
 0 <= x841 <= 1
 0 <= x843 <= 1
 0 <= x845 <= 1
 0 <= x847 <= 1
 0 <= x849 <= 1
 0 <= x851 <= 1
 0 <= x853 <= 1
 0 <= x855 <= 1
 0 <= x857 <= 1
 0 <= x859 <= 1
 0 <= x861 <= 1
 0 <= x863 <= 1
 0 <= x865 <= 1
 0 <= x867 <= 1
 0 <= x869 <= 1
 0 <= x871 <= 1
 0 <= x873 <= 1
 0 <= x875 <= 1
 0 <= x877 <= 1
 0 <= x879 <= 1
 0 <= x881 <= 1
 0 <= x883 <= 1
 0 <= x885 <= 1
 0 <= x887 <= 1
 0 <= x889 <= 1
 0 <= x891 <= 1
 0 <= x893 <= 1
 0 <= x895 <= 1
 0 <= x897 <= 1
 0 <= x899 <= 1
 0 <= x901 <= 1
 0 <= x903 <= 1
 0 <= x905 <= 1
 0 <= x907 <= 1
 0 <= x909 <= 1
 0 <= x911 <= 1
 0 <= x913 <= 1
 0 <= x915 <= 1
 0 <= x917 <= 1
 0 <= x919 <= 1
 0 <= x921 <= 1
 0 <= x922 <= 1
 0 <= x924 <= 1
 0 <= x926 <= 1
 0 <= x928 <= 1
 0 <= x930 <= 1
 0 <= x932 <= 1
 0 <= x934 <= 1
 0 <= x936 <= 1
 0 <= x938 <= 1
 0 <= x940 <= 1
 0 <= x942 <= 1
 0 <= x944 <= 1
 0 <= x946 <= 1
 0 <= x948 <= 1
 0 <= x950 <= 1
 0 <= x952 <= 1
 0 <= x954 <= 1
 0 <= x956 <= 1
 0 <= x958 <= 1
 0 <= x960 <= 1
 0 <= x961 <= 1
 0 <= x963 <= 1
 0 <= x965 <= 1
 0 <= x967 <= 1
 0 <= x969 <= 1
 0 <= x971 <= 1
 0 <= x973 <= 1
 0 <= x975 <= 1
 0 <= x977 <= 1
 0 <= x979 <= 1
 0 <= x981 <= 1
 0 <= x983 <= 1
 0 <= x985 <= 1
 0 <= x987 <= 1
 0 <= x989 <= 1
 0 <= x991 <= 1
 0 <= x993 <= 1
 0 <= x995 <= 1
 0 <= x997 <= 1
 0 <= x999 <= 1
 0 <= x1001 <= 1
 0 <= x1003 <= 1
 0 <= x1005 <= 1
 0 <= x1007 <= 1
 0 <= x1009 <= 1
 0 <= x1010 <= 1
 0 <= x1012 <= 1
 0 <= x1014 <= 1
 0 <= x1016 <= 1
 0 <= x1018 <= 1
 0 <= x1020 <= 1
 0 <= x1022 <= 1
 0 <= x1024 <= 1
 0 <= x1026 <= 1
 0 <= x1028 <= 1
 0 <= x1030 <= 1
 0 <= x1032 <= 1
 0 <= x1034 <= 1
 0 <= x1036 <= 1
 0 <= x1037 <= 1
 0 <= x1039 <= 1
 0 <= x1041 <= 1
 0 <= x1043 <= 1
 0 <= x1044 <= 1
 0 <= x1046 <= 1
 0 <= x1048 <= 1
 0 <= x1050 <= 1
 0 <= x1052 <= 1
 0 <= x1054 <= 1
 0 <= x1056 <= 1
 0 <= x1058 <= 1
 0 <= x1060 <= 1
 0 <= x1062 <= 1
 0 <= x1064 <= 1
 0 <= x1066 <= 1
 0 <= x1068 <= 1
 0 <= x1070 <= 1
 0 <= x1072 <= 1
 0 <= x1074 <= 1
 0 <= x1076 <= 1
 0 <= x1078 <= 1
 0 <= x1080 <= 1
 0 <= x1082 <= 1
 0 <= x1084 <= 1
 0 <= x1086 <= 1
 0 <= x1088 <= 1
 0 <= x1090 <= 1
 0 <= x1092 <= 1
 0 <= x1094 <= 1
 0 <= x1096 <= 1
 0 <= x1098 <= 1
 0 <= x1100 <= 1
 0 <= x1102 <= 1
 0 <= x1104 <= 1
 0 <= x1106 <= 1
 0 <= x1108 <= 1
 0 <= x1109 <= 1
 0 <= x1111 <= 1
 0 <= x1113 <= 1
 0 <= x1115 <= 1
 0 <= x1116 <= 1
 0 <= x1118 <= 1
 0 <= x1120 <= 1
 0 <= x1122 <= 1
 0 <= x1124 <= 1
 0 <= x1126 <= 1
 0 <= x1128 <= 1
 0 <= x1130 <= 1
 0 <= x1132 <= 1
 0 <= x1134 <= 1
 0 <= x1136 <= 1
 0 <= x1138 <= 1
 0 <= x1140 <= 1
 0 <= x1142 <= 1
 0 <= x1144 <= 1
 0 <= x1146 <= 1
 0 <= x1148 <= 1
 0 <= x1150 <= 1
 0 <= x1152 <= 1
 0 <= x1154 <= 1
 0 <= x1155 <= 1
 0 <= x1157 <= 1
 0 <= x1159 <= 1
 0 <= x1161 <= 1
 0 <= x1162 <= 1
 0 <= x1164 <= 1
 0 <= x1166 <= 1
 0 <= x1168 <= 1
 0 <= x1170 <= 1
 0 <= x1172 <= 1
 0 <= x1173 <= 1
 0 <= x1175 <= 1
 0 <= x1177 <= 1
 0 <= x1178 <= 1
 0 <= x1180 <= 1
 0 <= x1182 <= 1
 0 <= x1184 <= 1
 0 <= x1186 <= 1
 0 <= x1188 <= 1
 0 <= x1190 <= 1
 0 <= x1192 <= 1
 0 <= x1194 <= 1
 0 <= x1196 <= 1
 0 <= x1198 <= 1
 0 <= x1200 <= 1
 0 <= x1202 <= 1
 0 <= x1204 <= 1
 0 <= x1205 <= 1
 0 <= x1207 <= 1
 0 <= x1208 <= 1
 0 <= x1210 <= 1
 0 <= x1212 <= 1
 0 <= x1214 <= 1
 0 <= x1216 <= 1
 0 <= x1218 <= 1
 0 <= x1220 <= 1
Generals
 x1  x1  x3  x5  x7  x9  x11  x13  x15  x17  x19  x21  x23  x25  x27  x29  x31 
 x33  x35  x37  x39  x41  x43  x45  x47  x49  x51  x53  x55  x57  x59  x61 
 x63  x65  x67  x69  x71  x73  x75  x77  x79  x81  x83  x85  x87  x89  x91 
 x93  x95  x97  x99  x101  x103  x105  x107  x109  x111  x113  x115  x117 
 x119  x121  x123  x125  x127  x129  x131  x133  x135  x137  x139  x141  x143 
 x145  x147  x149  x151  x153  x155  x157  x159  x161  x163  x165  x167  x169 
 x171  x173  x175  x177  x179  x181  x183  x185  x187  x189  x191  x193  x195 
 x197  x199  x201  x203  x205  x207  x209  x211  x213  x215  x217  x219  x221 
 x223  x225  x227  x229  x231  x233  x235  x237  x239  x241  x243  x245  x247 
 x249  x251  x253  x255  x257  x259  x261  x263  x265  x267  x269  x271  x273 
 x275  x277  x279  x281  x283  x285  x287  x289  x291  x293  x294  x296  x298 
 x300  x302  x304  x306  x308  x310  x312  x314  x316  x318  x320  x322  x324 
 x326  x328  x330  x332  x334  x336  x338  x340  x342  x344  x346  x348  x350 
 x352  x354  x356  x358  x360  x362  x364  x366  x368  x370  x372  x374  x376 
 x378  x380  x382  x383  x385  x387  x389  x391  x393  x395  x397  x399  x401 
 x403  x405  x407  x409  x411  x413  x415  x417  x419  x421  x423  x425  x427 
 x429  x431  x433  x435  x437  x439  x441  x443  x445  x447  x449  x450  x452 
 x454  x456  x458  x460  x462  x464  x466  x468  x470  x472  x474  x476  x478 
 x480  x482  x484  x486  x488  x490  x492  x494  x496  x498  x500  x502  x503 
 x505  x507  x509  x511  x513  x515  x517  x519  x521  x523  x525  x527  x528 
 x530  x532  x534  x536  x538  x540  x542  x544  x546  x548  x550  x552  x554 
 x556  x558  x560  x562  x564  x566  x567  x569  x571  x573  x575  x577  x579 
 x581  x583  x585  x587  x589  x591  x592  x594  x596  x598  x600  x602  x604 
 x606  x608  x610  x612  x613  x615  x617  x619  x621  x623  x625  x627  x629 
 x631  x633  x635  x637  x639  x641  x643  x645  x647  x649  x651  x653  x655 
 x657  x658  x660  x662  x664  x666  x668  x670  x672  x674  x676  x678  x680 
 x682  x684  x685  x687  x689  x691  x693  x695  x697  x699  x701  x703  x705 
 x707  x709  x711  x713  x715  x717  x719  x721  x723  x725  x727  x729  x731 
 x733  x735  x737  x739  x741  x742  x744  x746  x748  x750  x752  x754  x756 
 x758  x760  x762  x764  x766  x768  x770  x772  x774  x776  x778  x780  x782 
 x784  x786  x788  x790  x792  x794  x796  x798  x800  x802  x804  x806  x808 
 x810  x812  x814  x816  x818  x820  x822  x823  x825  x827  x829  x831  x833 
 x835  x837  x839  x841  x843  x845  x847  x849  x851  x853  x855  x857  x859 
 x861  x863  x865  x867  x869  x871  x873  x875  x877  x879  x881  x883  x885 
 x887  x889  x891  x893  x895  x897  x899  x901  x903  x905  x907  x909  x911 
 x913  x915  x917  x919  x921  x922  x924  x926  x928  x930  x932  x934  x936 
 x938  x940  x942  x944  x946  x948  x950  x952  x954  x956  x958  x960  x961 
 x963  x965  x967  x969  x971  x973  x975  x977  x979  x981  x983  x985  x987 
 x989  x991  x993  x995  x997  x999  x1001  x1003  x1005  x1007  x1009  x1010 
 x1012  x1014  x1016  x1018  x1020  x1022  x1024  x1026  x1028  x1030  x1032 
 x1034  x1036  x1037  x1039  x1041  x1043  x1044  x1046  x1048  x1050  x1052 
 x1054  x1056  x1058  x1060  x1062  x1064  x1066  x1068  x1070  x1072  x1074 
 x1076  x1078  x1080  x1082  x1084  x1086  x1088  x1090  x1092  x1094  x1096 
 x1098  x1100  x1102  x1104  x1106  x1108  x1109  x1111  x1113  x1115  x1116 
 x1118  x1120  x1122  x1124  x1126  x1128  x1130  x1132  x1134  x1136  x1138 
 x1140  x1142  x1144  x1146  x1148  x1150  x1152  x1154  x1155  x1157  x1159 
 x1161  x1162  x1164  x1166  x1168  x1170  x1172  x1173  x1175  x1177  x1178 
 x1180  x1182  x1184  x1186  x1188  x1190  x1192  x1194  x1196  x1198  x1200 
 x1202  x1204  x1205  x1207  x1208  x1210  x1212  x1214  x1216  x1218  x1220 
End
